NAME          ClpDefau
ROWS
 N  OBJROW
 L  R_88_0
 L  R_88_1
 L  R_88_2
 L  R_88_3
 L  R_88_4
 L  R_88_5
 L  R_88_6
 L  R_88_7
COLUMNS
    x_0       OBJROW     -8.           R_88_2    88.         
    x_0       R_88_3    56.         
    x_1       OBJROW     -12.       
    x_2       OBJROW     -11.          R_88_2    23.         
    x_2       R_88_4    42.            R_88_5    66.         
    x_3       OBJROW     -47.          R_88_1    58.         
    x_4       OBJROW     -22.          R_88_2    97.         
    x_5       OBJROW     -95.       
    x_6       OBJROW     -86.       
    x_7       OBJROW     -40.       
RHS
    RHS       R_88_0    72.            R_88_1    59.         
    RHS       R_88_2    46.            R_88_3    82.         
    RHS       R_88_4    85.            R_88_5    66.         
    RHS       R_88_6    99.            R_88_7    29.         
BOUNDS
 UI BOUND     x_0       100.        
 UI BOUND     x_1       100.        
 UI BOUND     x_2       100.        
 UI BOUND     x_3       100.        
 UI BOUND     x_4       100.        
 UI BOUND     x_5       100.        
 UI BOUND     x_6       100.        
 UI BOUND     x_7       100.        
ENDATA
